robust/generate/spp_dkp_Lefebvre_et_al_2026/src/shortest_path_10_4.kp
46
362

[3.94 3.19 1.25 3.81 1.57 4.71 0.22 2.22 4.59 2.29 2.55 0.43 2.14 3.75 4.36 1.63 0.52 4.03 1.99 3.16 0.18 1.51 0.24 1.87 1.32 4.98 1.99 1.55 1.11 2.48 0.29 1.46 1.18 4.84 3.1 4.34 0.45 0.75 3.38 4.92 0.12 4.56 0.29 3.8 0.32 1.29 0.85 0.98 0.54 2.62 0.03 3.97 0.7 0.54 2.16 1.1 4.2 0.03 0.75 3.51 0.74 4.38 2.58 2.14 0.1 2.49 4.76 1.74 2.05 4.17 3.59 2.45]

[14 72 54 85 84 58 77 22 82 96 48 75 83 12 6 90 15 61 12 57 42 65 1 37 90 5 26 40 83 33 71 26 27 92 98 72 55 37 44 36 19 96 34 61 94 74 53 62 39 91 70 81 44 46 86 78 36 100 57 71 44 55 58 98 66 58 55 65 54 18 15 27]
